read_restart    end-REPLACE.restart
neighbor	    2.0 bin
timestep        1e-3

PAIRCOEFF

bond_coeff	    1 100.0 4.0 1.0 1.0

log             ctn-REPLACE.log

thermo          100000
thermo_style    custom step lx ly lz pxx pyy pzz fmax temp pe density

run             0


compute         chunkmol all chunk/atom molecule
compute         molcom all com/chunk chunkmol

fix             1 all nvt temp 1.0 1.0 $(100.0*dt)
velocity        all create 1.0 2023 mom yes rot yes dist gaussian


fix             2 all ave/time 10000 1 10000 c_molcom[*] file REPLACE_mol_com.dat mode vector

compute         molgyr all gyration/chunk chunkmol
fix             3 all ave/time 10000 1 10000 c_molgyr file REPLACE_mol_gyration.dat mode vector

compute         myRDF all rdf 100 1 1 1 2 1 3 2 2 2 3 3 3
fix             4 all ave/time 10000 1 10000 c_myRDF[*] file REPLACE_monomer_rdf.dat mode vector

run	            5000000

write_dump all  custom ctn-REPLACE.atom id mol type xu yu zu
write_restart   ctn-REPLACE.restart
